db/data/230252701186732977911744325592832521011.z3.out
-------------------
2500.221329638
